c Circuit specification for 8-input combinational logic
c Variables: 1=a, 2=b, 3=c, 4=d, 5=e, 6=f, 7=g, 8=h
c This specification encodes complex combinational logic constraints
p cnf 8 20
1 2 -3 0
-1 -2 4 0
2 3 -5 0
-3 4 5 0
1 -4 6 0
-2 5 -6 0
3 -5 7 0
-1 6 -7 0
4 -6 8 0
-4 7 -8 0
1 -2 -3 0
5 6 7 0
-5 -6 8 0
2 -4 -7 0
-1 3 -8 0
1 5 -7 0
-2 -5 6 0
3 4 -6 0
-3 -7 8 0
1 2 5 0